396
8178
8881
588
8835
2024
9170
4789
4990
2456
4203
6542
6945
9299
9956
7642
1524
4860
4661
7589
9404
2603
6411
2284
5140
570
3543
4331
9023
5131
5167
8167
1550
953
6593
7374
7864
8788
7717
6955
1875
2858
5183
7840
8427
1173
8995
5750
3782
9883
